num_servers = 16;
sid = [0, 1, 2, 3, 4, 5, 6, 7, 8, 9, 10, 11, 12, 13, 14, 15];
scpu = [5, 5, 5, 5, 5, 5, 5, 5, 5, 10, 5, 5, 5, 5, 5, 10];
sram = [9, 10, 16, 9, 6, 9, 8, 16, 6, 10, 9, 8, 7, 9, 6, 10];

num_vms = 53;
vjob = [0, 1, 2, 2, 2, 2, 2, 3, 4, 4, 5, 5, 5, 5, 5, 6, 6, 6, 6, 6, 7, 8, 9, 10, 11, 11, 11, 11, 11, 11, 11, 12, 12, 12, 12, 13, 13, 14, 15, 15, 16, 16, 16, 16, 16, 17, 17, 17, 17, 17, 17, 18, 19];
vindex = [0, 0, 0, 1, 2, 3, 4, 0, 0, 1, 0, 1, 2, 3, 4, 0, 1, 2, 3, 4, 0, 0, 0, 0, 0, 1, 2, 3, 4, 5, 6, 0, 1, 2, 3, 0, 1, 0, 0, 1, 0, 1, 2, 3, 4, 0, 1, 2, 3, 4, 5, 0, 0];
vcpu = [2, 1, 1, 1, 1, 1, 2, 1, 1, 1, 1, 2, 1, 1, 1, 1, 1, 1, 1, 1, 1, 1, 1, 1, 1, 1, 1, 1, 1, 1, 1, 1, 1, 1, 1, 1, 1, 1, 1, 1, 1, 1, 1, 1, 1, 1, 1, 2, 1, 1, 1, 1, 1];
vram = [1, 1, 4, 1, 3, 1, 5, 1, 1, 1, 1, 4, 1, 1, 1, 1, 5, 1, 1, 1, 1, 1, 1, 1, 1, 3, 1, 1, 1, 1, 1, 1, 4, 1, 1, 1, 1, 1, 2, 1, 1, 1, 1, 1, 1, 1, 1, 2, 1, 1, 1, 1, 1];
vac = [true, true, true, true, true, true, true, true, true, true, true, true, true, true, true, true, true, true, true, true, true, true, true, true, true, true, true, true, true, true, true, true, true, true, true, true, true, true, true, true, true, true, true, true, true, true, true, true, true, true, true, true, true];
